
Gurobi 10.0.1 (win64) logging started Thu Oct  5 12:31:44 2023

Set parameter LogFile to value "./results//log/BA_07_deadline_heurTrue.log"
Gurobi Optimizer version 10.0.1 build v10.0.1rc0 (win64)

CPU model: AMD Ryzen 7 3700X 8-Core Processor, instruction set [SSE2|AVX|AVX2]
Thread count: 8 physical cores, 16 logical processors, using up to 16 threads

Optimize a model with 151 rows, 124 columns and 506 nonzeros
Model fingerprint: 0x49df915a
Model has 1 quadratic constraint
Variable types: 0 continuous, 124 integer (105 binary)
Coefficient statistics:
  Matrix range     [1e+00, 1e+07]
  QMatrix range    [1e+00, 1e+00]
  QLMatrix range   [1e+00, 1e+01]
  Objective range  [1e+00, 1e+00]
  Bounds range     [1e+00, 1e+00]
  RHS range        [1e+00, 3e+07]

User MIP start did not produce a new incumbent solution
User MIP start violates constraint initial_start_time_job1_stage0_machine4_constraint by 1.000000000

Presolve removed 35 rows and 65 columns
Presolve time: 0.00s
Presolved: 123 rows, 65 columns, 481 nonzeros
Variable types: 0 continuous, 65 integer (40 binary)

Root relaxation: objective 0.000000e+00, 21 iterations, 0.00 seconds (0.00 work units)
Another try with MIP start

    Nodes    |    Current Node    |     Objective Bounds      |     Work
 Expl Unexpl |  Obj  Depth IntInf | Incumbent    BestBd   Gap | It/Node Time

     0     0    0.00000    0    1          -    0.00000      -     -    0s
H    0     0                      25.0000000    0.00000   100%     -    0s
     0     0    0.00000    0    3   25.00000    0.00000   100%     -    0s
H    0     0                      23.0000000    0.00000   100%     -    0s
H    0     0                      22.0000000    0.00000   100%     -    0s
     0     0    0.00000    0    1   22.00000    0.00000   100%     -    0s
H    0     0                      20.0000000    0.00000   100%     -    0s
H    0     0                      18.0000000    0.00000   100%     -    0s
     0     0    0.00000    0    6   18.00000    0.00000   100%     -    0s
     0     0    0.00000    0    9   18.00000    0.00000   100%     -    0s
     0     0    0.00000    0    4   18.00000    0.00000   100%     -    0s
H    0     0                      17.0000000    0.00000   100%     -    0s
     0     0    0.00000    0   12   17.00000    0.00000   100%     -    0s
     0     0    0.00000    0   11   17.00000    0.00000   100%     -    0s
     0     0    0.00000    0    1   17.00000    0.00000   100%     -    0s
     0     0    0.00000    0    1   17.00000    0.00000   100%     -    0s
     0     2    0.00000    0    1   17.00000    0.00000   100%     -    0s
H   28    17                      12.0000000    2.00000  83.3%   7.9    0s
H   72    27                      11.0000000    2.00000  81.8%   4.8    0s

Cutting planes:
  Learned: 30
  Implied bound: 9
  MIR: 2
  Flow cover: 1
  RLT: 4
  Relax-and-lift: 1

Explored 243 nodes (1186 simplex iterations) in 0.06 seconds (0.02 work units)
Thread count was 16 (of 16 available processors)

Solution count 8: 11 12 17 ... 25

Optimal solution found (tolerance 1.00e-04)
Best objective 1.100000000000e+01, best bound 1.100000000000e+01, gap 0.0000%
Warning: constraint name "precedence between 0,0 to 0,2 if x_[0,0,0,2,3]=0, i.e. 0,2 before 0,0" has a space
Warning: constraint name "precedence between 0,0 to 0,2 if x_[0,0,0,2,3]=0, i.e. 0,2 before 0,0" has a space
Warning: default constraint names used to write mps file
